maximize
obj: 6 _0_z_demand_2_ + 6 _0_z_demand_3_ + 6 _0_z_demand_1_
subject to
c1_3: -1.1025 _0_z_voltage_4_ + 1 _0_w_4_1_ <= 0
c2_3: -1.1025 _0_z_voltage_4_ + 1 _0_w_4_2_ <= 0
c3_3: -1.1025 _0_z_voltage_4_ + 1 _0_w_4_3_ <= 0
c4_2: -1.1025 _0_z_voltage_3_ + 1 _0_w_3_1_ <= 0
c5_2: -1.1025 _0_z_voltage_3_ + 1 _0_w_3_2_ <= 0
c6_2: -1.1025 _0_z_voltage_3_ + 1 _0_w_3_3_ <= 0
c7_2: -1.1025 _0_z_voltage_1_ + 1 _0_w_1_1_ <= 0
c8_2: -1.1025 _0_z_voltage_1_ + 1 _0_w_1_2_ <= 0
c9_2: -1.1025 _0_z_voltage_1_ + 1 _0_w_1_3_ <= 0
c10_2: -1.1025 _0_z_voltage_4_ + 1 _0_w_4_1_ <= 0
c11_2: -1.1025 _0_z_voltage_4_ + 1 _0_w_4_2_ <= 0
c12_2: -1.1025 _0_z_voltage_4_ + 1 _0_w_4_3_ <= 0
c13_1: -1.1025 _0_z_voltage_2_ + 1 _0_w_2_1_ <= 0
c14_1: -1.1025 _0_z_voltage_2_ + 1 _0_w_2_2_ <= 0
c15_1: -1.1025 _0_z_voltage_2_ + 1 _0_w_2_3_ <= 0
c16_1: -1.1025 _0_z_voltage_3_ + 1 _0_w_3_1_ <= 0
c17_1: -1.1025 _0_z_voltage_3_ + 1 _0_w_3_2_ <= 0
c18_1: -1.1025 _0_z_voltage_3_ + 1 _0_w_3_3_ <= 0
c19_2: -1.1025 _0_z_voltage_1_ + 1 _0_w_1_1_ <= 0
c20_2: -1.1025 _0_z_voltage_1_ + 1 _0_w_1_2_ <= 0
c21_2: -1.1025 _0_z_voltage_1_ + 1 _0_w_1_3_ <= 0
c22_2: -0.9999999999996649 _0_w_4_1_ + 1 _0_w_1_1_ + 3.749999999999999e-5 _0_p_(2,_4,_1)_1_ + 3.749999999999999e-5 _0_q_(2,_4,_1)_1_ + 1.1025 _0_z_block_2_ <= 1.1025
c23_2: -0.9999999999996649 _0_w_4_2_ + 1 _0_w_1_2_ + 3.749999999999999e-5 _0_p_(2,_4,_1)_2_ + 3.749999999999999e-5 _0_q_(2,_4,_1)_2_ + 1.1025 _0_z_block_2_ <= 1.1025
c24_2: -0.9999999999996649 _0_w_4_3_ + 1 _0_w_1_3_ + 3.749999999999999e-5 _0_p_(2,_4,_1)_3_ + 3.749999999999999e-5 _0_q_(2,_4,_1)_3_ + 1.1025 _0_z_block_2_ <= 1.1025
c25_2: -0.17632698070826788 _0_w_4_1_ - 1.5443869111716278e-5 _0_p_(2,_4,_1)_1_ + 2.2056130888283712e-5 _0_q_(2,_4,_1)_1_ <= 0
c26_2: -0.17632698070826788 _0_w_4_2_ - 1.5443869111716278e-5 _0_p_(2,_4,_1)_2_ + 2.2056130888283712e-5 _0_q_(2,_4,_1)_2_ <= 0
c27_2: -0.17632698070826788 _0_w_4_3_ - 1.5443869111716278e-5 _0_p_(2,_4,_1)_3_ + 2.2056130888283712e-5 _0_q_(2,_4,_1)_3_ <= 0
c28_2: 1 _0_w_3_1_ - 0.9999989328 _0_w_1_1_ - 8.606941817077325e-7 _0_w_1_2_ + 4.3349418170773274e-7 _0_w_1_3_ + 0.004376249999999999 _0_p_(1,_1,_3)_1_ - 8.517064460831624e-6 _0_p_(1,_1,_3)_2_ - 0.0017427329355391684 _0_p_(1,_1,_3)_3_ + 0.002501249999999999 _0_q_(1,_1,_3)_1_ - 0.0020172519883774973 _0_q_(1,_1,_3)_2_ + 0.0010160019883774982 _0_q_(1,_1,_3)_3_ + 1.1025 _0_z_block_2_ <= 1.1025
c29_2: 1 _0_w_3_2_ + 4.3349418170773274e-7 _0_w_1_1_ - 0.9999989328 _0_w_1_2_ - 8.606941817077325e-7 _0_w_1_3_ - 0.0017427329355391684 _0_p_(1,_1,_3)_1_ + 0.004376249999999999 _0_p_(1,_1,_3)_2_ - 8.517064460831624e-6 _0_p_(1,_1,_3)_3_ + 0.0010160019883774982 _0_q_(1,_1,_3)_1_ + 0.002501249999999999 _0_q_(1,_1,_3)_2_ - 0.0020172519883774973 _0_q_(1,_1,_3)_3_ + 1.1025 _0_z_block_2_ <= 1.1025
c30_2: 1 _0_w_3_3_ - 8.606941817077325e-7 _0_w_1_1_ + 4.3349418170773274e-7 _0_w_1_2_ - 0.9999989328 _0_w_1_3_ - 8.517064460831624e-6 _0_p_(1,_1,_3)_1_ - 0.0017427329355391684 _0_p_(1,_1,_3)_2_ + 0.004376249999999999 _0_p_(1,_1,_3)_3_ - 0.0020172519883774973 _0_q_(1,_1,_3)_1_ + 0.0010160019883774982 _0_q_(1,_1,_3)_2_ + 0.002501249999999999 _0_q_(1,_1,_3)_3_ + 1.1025 _0_z_block_2_ <= 1.1025
c31_2: -1.7320489497465659 _0_w_1_1_ + 0.0025393186733116482 _0_p_(1,_1,_3)_1_ + 0.004354271041215826 _0_q_(1,_1,_3)_1_ <= 0
c32_2: -1.7320489497465659 _0_w_1_2_ + 0.0025393186733116482 _0_p_(1,_1,_3)_2_ + 0.004354271041215826 _0_q_(1,_1,_3)_2_ <= 0
c33_2: -1.7320489497465659 _0_w_1_3_ + 0.0025393186733116482 _0_p_(1,_1,_3)_3_ + 0.004354271041215826 _0_q_(1,_1,_3)_3_ <= 0
c34_2: -1 _0_w_4_1_ + 1 _0_w_2_1_ + 1.1025 _0_switch_state_1_1_ <= 1.1025
c35_2: -1 _0_w_4_2_ + 1 _0_w_2_2_ + 1.1025 _0_switch_state_1_1_ <= 1.1025
c36_2: -1 _0_w_4_3_ + 1 _0_w_2_3_ + 1.1025 _0_switch_state_1_1_ <= 1.1025
c37_2: 1 _0_switch_state_1_1_ - 1 _0_z_block_2_ + 1 _0_z_block_1_ <= 1
c38_2: -1 _0_switch_state_1_1_ + 1 _0_z_block_2_ <= 0
c39_2: 1 _0_switch_state_1_1_ <= 1
c40_2: 1 f_(2,_1,_2) - 1 lambda_(1,_2) <= 0
c41_2: 1 f_(2,_2,_1) - 1 lambda_(2,_1) <= 0
c42_2: 1 f_(2,_3,_2) - 1 lambda_(3,_2) <= 0
c43_2: 1 f_(2,_2,_3) - 1 lambda_(2,_3) <= 0
c44_2: 1 f_(2,_3,_1) - 1 lambda_(3,_1) <= 0
c45_2: 1 f_(2,_1,_3) - 1 lambda_(1,_3) <= 0
c46_2: 1 f_(1,_1,_2) - 1 lambda_(1,_2) <= 0
c47_2: 1 f_(1,_2,_1) - 1 lambda_(2,_1) <= 0
c48_2: 1 f_(1,_3,_2) - 1 lambda_(3,_2) <= 0
c49_2: 1 f_(1,_2,_3) - 1 lambda_(2,_3) <= 0
c50_2: 1 f_(1,_3,_1) - 1 lambda_(3,_1) <= 0
c51_2: 1 f_(1,_1,_3) - 1 lambda_(1,_3) <= 0
c52_2: 1 _0_switch_state_1_1_ - 1 beta_(1,_2) <= 0
c53_1: -1 _0_switch_state_1_1_ + 1 _0_blkenrg_2_1 <= 0
c54_1: -1 _0_z_block_1_ + 1 _0_blkenrg_2_1 <= 0
c55_1: 1 _0_switch_state_1_1_ + 1 _0_z_block_2_ - 1 _0_blkenrg_2_1 <= 1
c56_1: 1 _0_z_block_2_ + 1 _0_z_block_1_ <= 2
c57_1: 1 _0_switch_state_1_1_ <= 1
c58_1: 1 _0_z_demand_2_ - 1 _0_z_block_2_ <= 0
c59_1: -1 _0_z_voltage_3_ + 1 _0_z_demand_2_ <= 0
c60_1: 1 _0_z_demand_3_ - 1 _0_z_block_2_ <= 0
c61_1: -1 _0_z_voltage_3_ + 1 _0_z_demand_3_ <= 0
c62_1: 1 _0_z_demand_1_ - 1 _0_z_block_2_ <= 0
c63_1: -1 _0_z_voltage_3_ + 1 _0_z_demand_1_ <= 0
c64_1: 1 _0_z_voltage_4_ - 1 _0_z_block_2_ <= 0
c65_1: 1 _0_z_voltage_3_ - 1 _0_z_block_2_ <= 0
c66_1: 1 _0_z_voltage_1_ - 1 _0_z_block_2_ <= 0
c1: [ -19200.000000000004 _0_switch_state_1_1_ * _0_w_2_1_ + 1 _0_psw_aux_(1,_2,_4)_1_ ^ 2 + 1 _0_qsw_aux_(1,_2,_4)_1_ ^ 2 ] <= 0
c2: [ -19200.000000000004 _0_switch_state_1_1_ * _0_w_2_2_ + 1 _0_psw_aux_(1,_2,_4)_2_ ^ 2 + 1 _0_qsw_aux_(1,_2,_4)_2_ ^ 2 ] <= 0
c3: [ -19200.000000000004 _0_switch_state_1_1_ * _0_w_2_3_ + 1 _0_psw_aux_(1,_2,_4)_3_ ^ 2 + 1 _0_qsw_aux_(1,_2,_4)_3_ ^ 2 ] <= 0
c1_2: -0.9025 _0_z_voltage_4_ + 1 _0_w_4_1_ >= 0
c2_2: -0.9025 _0_z_voltage_4_ + 1 _0_w_4_2_ >= 0
c3_2: -0.9025 _0_z_voltage_4_ + 1 _0_w_4_3_ >= 0
c4_1: -0.9025 _0_z_voltage_3_ + 1 _0_w_3_1_ >= 0
c5_1: -0.9025 _0_z_voltage_3_ + 1 _0_w_3_2_ >= 0
c6_1: -0.9025 _0_z_voltage_3_ + 1 _0_w_3_3_ >= 0
c7_1: -0.9025 _0_z_voltage_1_ + 1 _0_w_1_1_ >= 0
c8_1: -0.9025 _0_z_voltage_1_ + 1 _0_w_1_2_ >= 0
c9_1: -0.9025 _0_z_voltage_1_ + 1 _0_w_1_3_ >= 0
c10_1: -0.9025 _0_z_voltage_4_ + 1 _0_w_4_1_ >= 0
c11_1: -0.9025 _0_z_voltage_4_ + 1 _0_w_4_2_ >= 0
c12_1: -0.9025 _0_z_voltage_4_ + 1 _0_w_4_3_ >= 0
c13: -0.9025 _0_z_voltage_2_ + 1 _0_w_2_1_ >= 0
c14: -0.9025 _0_z_voltage_2_ + 1 _0_w_2_2_ >= 0
c15: -0.9025 _0_z_voltage_2_ + 1 _0_w_2_3_ >= 0
c16: -0.9025 _0_z_voltage_3_ + 1 _0_w_3_1_ >= 0
c17: -0.9025 _0_z_voltage_3_ + 1 _0_w_3_2_ >= 0
c18: -0.9025 _0_z_voltage_3_ + 1 _0_w_3_3_ >= 0
c19_1: -0.9025 _0_z_voltage_1_ + 1 _0_w_1_1_ >= 0
c20_1: -0.9025 _0_z_voltage_1_ + 1 _0_w_1_2_ >= 0
c21_1: -0.9025 _0_z_voltage_1_ + 1 _0_w_1_3_ >= 0
c22_1: -0.9999999999996649 _0_w_4_1_ + 1 _0_w_1_1_ + 3.749999999999999e-5 _0_p_(2,_4,_1)_1_ + 3.749999999999999e-5 _0_q_(2,_4,_1)_1_ - 1.1025 _0_z_block_2_ >= -1.1025
c23_1: -0.9999999999996649 _0_w_4_2_ + 1 _0_w_1_2_ + 3.749999999999999e-5 _0_p_(2,_4,_1)_2_ + 3.749999999999999e-5 _0_q_(2,_4,_1)_2_ - 1.1025 _0_z_block_2_ >= -1.1025
c24_1: -0.9999999999996649 _0_w_4_3_ + 1 _0_w_1_3_ + 3.749999999999999e-5 _0_p_(2,_4,_1)_3_ + 3.749999999999999e-5 _0_q_(2,_4,_1)_3_ - 1.1025 _0_z_block_2_ >= -1.1025
c25_1: 0.176326980708603 _0_w_4_1_ - 2.2056130888283712e-5 _0_p_(2,_4,_1)_1_ + 1.5443869111716278e-5 _0_q_(2,_4,_1)_1_ >= 0
c26_1: 0.176326980708603 _0_w_4_2_ - 2.2056130888283712e-5 _0_p_(2,_4,_1)_2_ + 1.5443869111716278e-5 _0_q_(2,_4,_1)_2_ >= 0
c27_1: 0.176326980708603 _0_w_4_3_ - 2.2056130888283712e-5 _0_p_(2,_4,_1)_3_ + 1.5443869111716278e-5 _0_q_(2,_4,_1)_3_ >= 0
c28_1: 1 _0_w_3_1_ - 0.9999989328 _0_w_1_1_ - 8.606941817077325e-7 _0_w_1_2_ + 4.3349418170773274e-7 _0_w_1_3_ + 0.004376249999999999 _0_p_(1,_1,_3)_1_ - 8.517064460831624e-6 _0_p_(1,_1,_3)_2_ - 0.0017427329355391684 _0_p_(1,_1,_3)_3_ + 0.002501249999999999 _0_q_(1,_1,_3)_1_ - 0.0020172519883774973 _0_q_(1,_1,_3)_2_ + 0.0010160019883774982 _0_q_(1,_1,_3)_3_ - 1.1025 _0_z_block_2_ >= -1.1025
c29_1: 1 _0_w_3_2_ + 4.3349418170773274e-7 _0_w_1_1_ - 0.9999989328 _0_w_1_2_ - 8.606941817077325e-7 _0_w_1_3_ - 0.0017427329355391684 _0_p_(1,_1,_3)_1_ + 0.004376249999999999 _0_p_(1,_1,_3)_2_ - 8.517064460831624e-6 _0_p_(1,_1,_3)_3_ + 0.0010160019883774982 _0_q_(1,_1,_3)_1_ + 0.002501249999999999 _0_q_(1,_1,_3)_2_ - 0.0020172519883774973 _0_q_(1,_1,_3)_3_ - 1.1025 _0_z_block_2_ >= -1.1025
c30_1: 1 _0_w_3_3_ - 8.606941817077325e-7 _0_w_1_1_ + 4.3349418170773274e-7 _0_w_1_2_ - 0.9999989328 _0_w_1_3_ - 8.517064460831624e-6 _0_p_(1,_1,_3)_1_ - 0.0017427329355391684 _0_p_(1,_1,_3)_2_ + 0.004376249999999999 _0_p_(1,_1,_3)_3_ - 0.0020172519883774973 _0_q_(1,_1,_3)_1_ + 0.0010160019883774982 _0_q_(1,_1,_3)_2_ + 0.002501249999999999 _0_q_(1,_1,_3)_3_ - 1.1025 _0_z_block_2_ >= -1.1025
c31_1: 1.7320508169465658 _0_w_1_1_ - 0.005040568673311647 _0_p_(1,_1,_3)_1_ + 2.197895878417377e-5 _0_q_(1,_1,_3)_1_ >= 0
c32_1: 1.7320508169465658 _0_w_1_2_ - 0.005040568673311647 _0_p_(1,_1,_3)_2_ + 2.197895878417377e-5 _0_q_(1,_1,_3)_2_ >= 0
c33_1: 1.7320508169465658 _0_w_1_3_ - 0.005040568673311647 _0_p_(1,_1,_3)_3_ + 2.197895878417377e-5 _0_q_(1,_1,_3)_3_ >= 0
c34_1: -1 _0_w_4_1_ + 1 _0_w_2_1_ - 1.1025 _0_switch_state_1_1_ >= -1.1025
c35_1: -1 _0_w_4_2_ + 1 _0_w_2_2_ - 1.1025 _0_switch_state_1_1_ >= -1.1025
c36_1: -1 _0_w_4_3_ + 1 _0_w_2_3_ - 1.1025 _0_switch_state_1_1_ >= -1.1025
c37_1: -1 _0_switch_state_1_1_ - 1 _0_z_block_2_ + 1 _0_z_block_1_ >= -1
c38_1: 1 f_(2,_1,_2) >= 0
c39_1: 1 f_(2,_2,_1) >= 0
c40_1: 1 f_(2,_3,_2) >= 0
c41_1: 1 f_(2,_2,_3) >= 0
c42_1: 1 f_(2,_3,_1) >= 0
c43_1: 1 f_(2,_1,_3) >= 0
c44_1: 1 f_(1,_1,_2) >= 0
c45_1: 1 f_(1,_2,_1) >= 0
c46_1: 1 f_(1,_3,_2) >= 0
c47_1: 1 f_(1,_2,_3) >= 0
c48_1: 1 f_(1,_3,_1) >= 0
c49_1: 1 f_(1,_1,_3) >= 0
c50_1: -1 _0_switch_state_1_1_ - 1 _0_z_block_1_ + 1 _0_blkenrg_2_1 >= -1
c51_1: 1 _0_z_block_2_ + 1 _0_z_block_1_ >= 1
c52_1: 1 _0_switch_state_1_1_ >= 0
c1_1: 1 _0_psw_(1,_2,_4)_1_ - 1 _0_psw_aux_(1,_2,_4)_1_ = 0
c2_1: 1 _0_psw_(1,_2,_4)_2_ - 1 _0_psw_aux_(1,_2,_4)_2_ = 0
c3_1: 1 _0_psw_(1,_2,_4)_3_ - 1 _0_psw_aux_(1,_2,_4)_3_ = 0
c4: -1 _0_psw_(1,_2,_4)_1_ - 1 _0_psw_aux_(1,_4,_2)_1_ = 0
c5: -1 _0_psw_(1,_2,_4)_2_ - 1 _0_psw_aux_(1,_4,_2)_2_ = 0
c6: -1 _0_psw_(1,_2,_4)_3_ - 1 _0_psw_aux_(1,_4,_2)_3_ = 0
c7: 1 _0_qsw_(1,_2,_4)_1_ - 1 _0_qsw_aux_(1,_2,_4)_1_ = 0
c8: 1 _0_qsw_(1,_2,_4)_2_ - 1 _0_qsw_aux_(1,_2,_4)_2_ = 0
c9: 1 _0_qsw_(1,_2,_4)_3_ - 1 _0_qsw_aux_(1,_2,_4)_3_ = 0
c10: -1 _0_qsw_(1,_2,_4)_1_ - 1 _0_qsw_aux_(1,_4,_2)_1_ = 0
c11: -1 _0_qsw_(1,_2,_4)_2_ - 1 _0_qsw_aux_(1,_4,_2)_2_ = 0
c12: -1 _0_qsw_(1,_2,_4)_3_ - 1 _0_qsw_aux_(1,_4,_2)_3_ = 0
_0_pshed_constraint_2_: 6 _0_z_demand_2_ + 1 _0_pshed_2_ = 6
_0_pshed_constraint_3_: 6 _0_z_demand_3_ + 1 _0_pshed_3_ = 6
_0_pshed_constraint_1_: 6 _0_z_demand_1_ + 1 _0_pshed_1_ = 6
_0_qshed_constraint_2_: 3 _0_z_demand_2_ + 1 _0_qshed_2_ = 3
_0_qshed_constraint_3_: 3 _0_z_demand_3_ + 1 _0_qshed_3_ = 3
_0_qshed_constraint_1_: 3 _0_z_demand_1_ + 1 _0_qshed_1_ = 3
c19: -1 _0_w_2_1_ + 1 _0_w_2_2_ = 0
c20: -1 _0_w_2_1_ + 1 _0_w_2_3_ = 0
c21: 1 _0_p_(2,_4,_1)_1_ + 1 _0_psw_aux_(1,_4,_2)_1_ = 0
c22: 1 _0_q_(2,_4,_1)_1_ + 1 _0_qsw_aux_(1,_4,_2)_1_ = 0
c23: 1 _0_p_(2,_4,_1)_2_ + 1 _0_psw_aux_(1,_4,_2)_2_ = 0
c24: 1 _0_q_(2,_4,_1)_2_ + 1 _0_qsw_aux_(1,_4,_2)_2_ = 0
c25: 1 _0_p_(2,_4,_1)_3_ + 1 _0_psw_aux_(1,_4,_2)_3_ = 0
c26: 1 _0_q_(2,_4,_1)_3_ + 1 _0_qsw_aux_(1,_4,_2)_3_ = 0
c27: 1 _0_psw_aux_(1,_2,_4)_1_ - 1 _0_pg_1_1_ = 0
c28: 1 _0_qsw_aux_(1,_2,_4)_1_ - 1 _0_qg_1_1_ = 0
c29: 1 _0_psw_aux_(1,_2,_4)_2_ - 1 _0_pg_1_2_ = 0
c30: 1 _0_qsw_aux_(1,_2,_4)_2_ - 1 _0_qg_1_2_ = 0
c31: 1 _0_psw_aux_(1,_2,_4)_3_ - 1 _0_pg_1_3_ = 0
c32: 1 _0_qsw_aux_(1,_2,_4)_3_ - 1 _0_qg_1_3_ = 0
c33: 1 _0_p_(1,_3,_1)_1_ + 6 _0_z_demand_3_ = 0
c34: 1 _0_q_(1,_3,_1)_1_ + 3 _0_z_demand_3_ = 0
c35: 1 _0_p_(1,_3,_1)_2_ + 6 _0_z_demand_1_ = 0
c36: 1 _0_q_(1,_3,_1)_2_ + 3 _0_z_demand_1_ = 0
c37: 1 _0_p_(1,_3,_1)_3_ + 6 _0_z_demand_2_ = 0
c38: 1 _0_q_(1,_3,_1)_3_ + 3 _0_z_demand_2_ = 0
c39: 1 _0_p_(1,_1,_3)_1_ + 1 _0_p_(2,_1,_4)_1_ = 0
c40: 1 _0_q_(1,_1,_3)_1_ + 1 _0_q_(2,_1,_4)_1_ = 0
c41: 1 _0_p_(1,_1,_3)_2_ + 1 _0_p_(2,_1,_4)_2_ = 0
c42: 1 _0_q_(1,_1,_3)_2_ + 1 _0_q_(2,_1,_4)_2_ = 0
c43: 1 _0_p_(1,_1,_3)_3_ + 1 _0_p_(2,_1,_4)_3_ = 0
c44: 1 _0_q_(1,_1,_3)_3_ + 1 _0_q_(2,_1,_4)_3_ = 0
c45: 1 _0_p_(2,_4,_1)_1_ + 1 _0_p_(2,_1,_4)_1_ = 0
c46: 8.936085770210969e-9 _0_w_4_1_ + 8.936085770210969e-9 _0_w_1_1_ + 1 _0_q_(2,_4,_1)_1_ + 1 _0_q_(2,_1,_4)_1_ = 0
c47: 1 _0_p_(2,_4,_1)_2_ + 1 _0_p_(2,_1,_4)_2_ = 0
c48: 8.936085770210969e-9 _0_w_4_2_ + 8.936085770210969e-9 _0_w_1_2_ + 1 _0_q_(2,_4,_1)_2_ + 1 _0_q_(2,_1,_4)_2_ = 0
c49: 1 _0_p_(2,_4,_1)_3_ + 1 _0_p_(2,_1,_4)_3_ = 0
c50: 8.936085770210969e-9 _0_w_4_3_ + 8.936085770210969e-9 _0_w_1_3_ + 1 _0_q_(2,_4,_1)_3_ + 1 _0_q_(2,_1,_4)_3_ = 0
c51: 1 _0_p_(1,_1,_3)_1_ + 1 _0_p_(1,_3,_1)_1_ = 0
c52: 0.00042666666666666683 _0_w_3_1_ + 0.00042666666666666683 _0_w_1_1_ + 1 _0_q_(1,_1,_3)_1_ + 1 _0_q_(1,_3,_1)_1_ = 0
c53: 1 _0_p_(1,_1,_3)_2_ + 1 _0_p_(1,_3,_1)_2_ = 0
c54: 0.00042666666666666683 _0_w_3_2_ + 0.00042666666666666683 _0_w_1_2_ + 1 _0_q_(1,_1,_3)_2_ + 1 _0_q_(1,_3,_1)_2_ = 0
c55: 1 _0_p_(1,_1,_3)_3_ + 1 _0_p_(1,_3,_1)_3_ = 0
c56: 0.00042666666666666683 _0_w_3_3_ + 0.00042666666666666683 _0_w_1_3_ + 1 _0_q_(1,_1,_3)_3_ + 1 _0_q_(1,_3,_1)_3_ = 0
c57: -1 f_(2,_3,_2) - 1 f_(2,_3,_1) + 1 f_(2,_1,_3) + 1 f_(2,_2,_3) = -1
c58: 1 f_(2,_1,_2) + 1 f_(2,_3,_2) - 1 f_(2,_2,_1) - 1 f_(2,_2,_3) = 1
c59: -1 f_(2,_1,_2) + 1 f_(2,_3,_1) - 1 f_(2,_1,_3) + 1 f_(2,_2,_1) = 0
c60: -1 f_(1,_3,_2) - 1 f_(1,_3,_1) + 1 f_(1,_1,_3) + 1 f_(1,_2,_3) = -1
c61: -1 f_(1,_1,_2) + 1 f_(1,_3,_1) - 1 f_(1,_1,_3) + 1 f_(1,_2,_1) = 1
c62: 1 f_(1,_1,_2) + 1 f_(1,_3,_2) - 1 f_(1,_2,_1) - 1 f_(1,_2,_3) = 0
c63: 1 lambda_(1,_2) + 1 lambda_(3,_2) + 1 lambda_(3,_1) + 1 lambda_(1,_3) + 1 lambda_(2,_1) + 1 lambda_(2,_3) = 2
c64: 1 lambda_(1,_2) - 1 beta_(1,_2) + 1 lambda_(2,_1) = 0
c65: 1 _0_z_demand_2_ - 1 _0_z_demand_3_ = 0
c66: 1 _0_z_demand_2_ - 1 _0_z_demand_1_ = 0
c67: 1 _0_z_gen_1_ = 1
Bounds
0 <= _0_w_4_1_ <= 1.1025
0 <= _0_w_4_2_ <= 1.1025
0 <= _0_w_4_3_ <= 1.1025
_0_w_2_1_ = 1.0609
_0_w_2_2_ = 1.0609
_0_w_2_3_ = 1.0609
0 <= _0_w_3_1_ <= 1.1025
0 <= _0_w_3_2_ <= 1.1025
0 <= _0_w_3_3_ <= 1.1025
0 <= _0_w_1_1_ <= 1.1025
0 <= _0_w_1_2_ <= 1.1025
0 <= _0_w_1_3_ <= 1.1025
_0_p_(2,_4,_1)_1_ free
_0_p_(2,_4,_1)_2_ free
_0_p_(2,_4,_1)_3_ free
_0_p_(1,_1,_3)_1_ free
_0_p_(1,_1,_3)_2_ free
_0_p_(1,_1,_3)_3_ free
_0_p_(2,_1,_4)_1_ free
_0_p_(2,_1,_4)_2_ free
_0_p_(2,_1,_4)_3_ free
_0_p_(1,_3,_1)_1_ free
_0_p_(1,_3,_1)_2_ free
_0_p_(1,_3,_1)_3_ free
_0_q_(2,_4,_1)_1_ free
_0_q_(2,_4,_1)_2_ free
_0_q_(2,_4,_1)_3_ free
_0_q_(1,_1,_3)_1_ free
_0_q_(1,_1,_3)_2_ free
_0_q_(1,_1,_3)_3_ free
_0_q_(2,_1,_4)_1_ free
_0_q_(2,_1,_4)_2_ free
_0_q_(2,_1,_4)_3_ free
_0_q_(1,_3,_1)_1_ free
_0_q_(1,_3,_1)_2_ free
_0_q_(1,_3,_1)_3_ free
_0_psw_(1,_2,_4)_1_ free
_0_psw_(1,_2,_4)_2_ free
_0_psw_(1,_2,_4)_3_ free
_0_psw_(1,_4,_2)_1_ free
_0_psw_(1,_4,_2)_2_ free
_0_psw_(1,_4,_2)_3_ free
_0_psw_aux_(1,_2,_4)_1_ free
_0_psw_aux_(1,_2,_4)_2_ free
_0_psw_aux_(1,_2,_4)_3_ free
_0_psw_aux_(1,_4,_2)_1_ free
_0_psw_aux_(1,_4,_2)_2_ free
_0_psw_aux_(1,_4,_2)_3_ free
_0_qsw_(1,_2,_4)_1_ free
_0_qsw_(1,_2,_4)_2_ free
_0_qsw_(1,_2,_4)_3_ free
_0_qsw_(1,_4,_2)_1_ free
_0_qsw_(1,_4,_2)_2_ free
_0_qsw_(1,_4,_2)_3_ free
_0_qsw_aux_(1,_2,_4)_1_ free
_0_qsw_aux_(1,_2,_4)_2_ free
_0_qsw_aux_(1,_2,_4)_3_ free
_0_qsw_aux_(1,_4,_2)_1_ free
_0_qsw_aux_(1,_4,_2)_2_ free
_0_qsw_aux_(1,_4,_2)_3_ free
0 <= _0_pg_1_1_ <= 6000
0 <= _0_pg_1_2_ <= 6000
0 <= _0_pg_1_3_ <= 6000
0 <= _0_qg_1_1_ <= 3000
0 <= _0_qg_1_2_ <= 3000
0 <= _0_qg_1_3_ <= 3000
_0_pshed_2_ free
_0_pshed_3_ free
_0_pshed_1_ free
_0_qshed_2_ free
_0_qshed_3_ free
_0_qshed_1_ free
_0_fair_load_weights_2_ = 5
_0_fair_load_weights_3_ = 5
_0_fair_load_weights_1_ = 5
f_(2,_1,_2) free
f_(1,_1,_2) free
0 <= lambda_(1,_2) <= 1
0 <= beta_(1,_2) <= 1
f_(2,_3,_2) free
f_(1,_3,_2) free
0 <= lambda_(3,_2) <= 1
f_(2,_3,_1) free
f_(1,_3,_1) free
0 <= lambda_(3,_1) <= 1
f_(2,_1,_3) free
f_(1,_1,_3) free
0 <= lambda_(1,_3) <= 1
f_(2,_2,_1) free
f_(1,_2,_1) free
0 <= lambda_(2,_1) <= 1
f_(2,_2,_3) free
f_(1,_2,_3) free
0 <= lambda_(2,_3) <= 1
Binary
_0_z_voltage_4_
_0_z_voltage_2_
_0_z_voltage_3_
_0_z_voltage_1_
_0_switch_state_1_1_
_0_z_gen_1_
_0_z_demand_2_
_0_z_demand_3_
_0_z_demand_1_
_0_z_block_2_
_0_z_block_1_
_0_blkenrg_2_1
End
